
Welcome to IBM(R) ILOG(R) CPLEX(R) Interactive Optimizer 12.7.1.0
  with Simplex, Mixed Integer & Barrier Optimizers
5725-A06 5725-A29 5724-Y48 5724-Y49 5724-Y54 5724-Y55 5655-Y21
Copyright IBM Corp. 1988, 2017.  All Rights Reserved.

Type 'help' for a list of available commands.
Type 'help' followed by a command name for more
information on commands.

CPLEX> New value for default parallel thread count: 1
CPLEX> New value for time limit in seconds: 3600
CPLEX> Problem 'eil76_m29.lp' read.
Read time = 0.18 sec. (18.19 ticks)
CPLEX> CPXPARAM_TimeLimit                               3600
CPXPARAM_Threads                                 1
CPXPARAM_Read_APIEncoding                        "UTF-8"
Tried aggregator 1 time.
MIP Presolve modified 169650 coefficients.
Reduced MIP has 7962 rows, 165376 columns, and 990227 nonzeros.
Reduced MIP has 165300 binaries, 75 generals, 0 SOSs, and 0 indicators.
Presolve time = 0.56 sec. (743.69 ticks)
Tried aggregator 1 time.
Reduced MIP has 7962 rows, 165376 columns, and 990227 nonzeros.
Reduced MIP has 165300 binaries, 76 generals, 0 SOSs, and 0 indicators.
Presolve time = 0.63 sec. (521.37 ticks)
Probing time = 0.18 sec. (79.58 ticks)
Clique table members: 326147.
MIP emphasis: balance optimality and feasibility.
MIP search method: dynamic search.
Parallel mode: none, using 1 thread.
Root relaxation solution time = 125.36 sec. (192808.21 ticks)

        Nodes                                         Cuts/
   Node  Left     Objective  IInf  Best Integer    Best Bound    ItCnt     Gap

      0     0       43.7058   273                     43.7058   127616         
      0     0       44.8808   390                    Cuts: 69   176767         
      0     0       45.0000   447                    Cuts: 33   222198         
      0     0       45.0000   471                    Cuts: 86   263212         
      0     0       45.0000   419                    Cuts: 29   285769         
      0     0       45.0000   493                    Cuts: 97   331597         
Heuristic still looking.
Heuristic still looking.
      0     2       45.0000   249                     45.0000   331597         
Elapsed time = 810.40 sec. (1274958.00 ticks, tree = 0.01 MB, solutions = 0)
      1     3       45.0000   272                     45.0000   332907         
      2     4       45.0000   543                     45.0000   364166         
      3     5       45.0183   286                     45.0000   365237         
      4     6       45.0000   278                     45.0000   367261         
      5     7       45.0000   276                     45.0000   375386         
      6     8       45.0000   355                     45.0000   386272         
      7     9       45.0802   315                     45.0000   402890         
      8    10       45.0163   409                     45.0000   413138         
      9    11       45.0215   337                     45.0000   419304         
     10    12       45.0651   385                     45.0000   420485         
Elapsed time = 971.60 sec. (1566543.93 ticks, tree = 1.35 MB, solutions = 0)
     11    13       52.0000   437                     45.0000   437540         
     12    14       45.0675   423                     45.0000   437863         
     14    16       45.1597   355                     45.0000   439142         
     15    17       45.1433   467                     45.0000   439449         
     16    18       45.2037   405                     45.0000   439780         
     17    19       54.2128   496                     45.0000   484182         
     18    20       45.3634   438                     45.0000   485690         
     19    21       45.3214   452                     45.0000   485939         
     21    23       45.4651   349                     45.0000   486687         
     23    24       52.2766   373                     45.0000   487019         
Elapsed time = 1063.39 sec. (1709770.30 ticks, tree = 3.34 MB, solutions = 0)
     25    26       45.5925   393                     45.0000   487332         
     27    28       65.1064   303                     45.0000   487891         
     28    29       45.6888   350                     45.0000   488214         
     30    31       45.6888   392                     45.0000   488443         
     32    31       45.7012   408                     45.0000   488771         
     33    32       54.0426   483                     45.0000   501054         
     35    33       59.4255   307                     45.0000   501397         
     44    40       80.2234   288                     45.0000   501756         
     55    49       97.8936   280                     45.0000   502108         
     65    56      127.4043   260                     45.0000   502477         
Elapsed time = 1151.43 sec. (1844562.35 ticks, tree = 8.31 MB, solutions = 0)
     70    59      132.7660   258                     45.0000   502874         
     81    67      166.1702   271                     45.0000   503293         
     98    78      212.6383   235                     45.0000   503714         
    119    91      264.3191   177                     45.0000   504141         
    145   111      327.0000   145                     45.0000   504551         
    160   126      327.0000    92                     45.0000   504910         
*   178   105      integral     0      327.0000       45.0000   505305   86.24%
    179   105       45.0172   283      327.0000       45.0000   508446   86.24%
    182   108       45.0508   277      327.0000       45.0000   508835   86.24%
    185   111       45.0690   262      327.0000       45.0000   509333   86.24%
    186   112       45.0326   299      327.0000       45.0000   510010   86.24%
Elapsed time = 1165.58 sec. (1868267.46 ticks, tree = 17.08 MB, solutions = 1)
    187   113       52.0000   426      327.0000       45.0000   519444   86.24%
    189   115       45.1304   370      327.0000       45.0000   520211   86.24%
    191   117       54.4894   575      327.0000       45.0000   559601   86.24%
    193   119       50.6809   408      327.0000       45.0000   576345   86.24%
    197   123       45.0950   431      327.0000       45.0000   576841   86.24%
    198   124       46.2979   314      327.0000       45.0000   585943   86.24%
    199   125       45.1402   412      327.0000       45.0000   586401   86.24%
    201   127       45.1093   361      327.0000       45.0000   586769   86.24%
    203   129       45.1226   415      327.0000       45.0000   587296   86.24%
    205   131       45.1093   366      327.0000       45.0000   587674   86.24%
Elapsed time = 1279.02 sec. (2048117.87 ticks, tree = 20.16 MB, solutions = 1)
    207   133       52.7660   429      327.0000       45.0000   598960   86.24%
    208   134       45.1525   383      327.0000       45.0000   599367   86.24%
    209   135       56.5745   378      327.0000       45.0000   620050   86.24%
    211   137       45.2608   567      327.0000       45.0000   621590   86.24%
    212   138       52.0000   419      327.0000       45.0000   634674   86.24%
    215   141       45.4672   305      327.0000       45.0000   635329   86.24%
    219   145       45.5080   348      327.0000       45.0000   635844   86.24%
    220   146       66.5106   261      327.0000       45.0000   636200   86.24%
    221   147       45.5814   399      327.0000       45.0000   636544   86.24%
    222   148       64.4255   394      327.0000       45.0000   667853   86.24%
Elapsed time = 1371.18 sec. (2190247.77 ticks, tree = 22.79 MB, solutions = 1)
    224   150       45.6207   396      327.0000       45.0000   668539   86.24%
    226   152       45.6234   337      327.0000       45.0000   670124   86.24%
    228   154       45.9680   341      327.0000       45.0000   671383   86.24%
    229   153    infeasible            327.0000       45.0000   672615   86.24%
    230   154       46.0260   366      327.0000       45.0000   673109   86.24%
    231   154       46.1915   301      327.0000       45.0000   678478   86.24%
    235   157       63.0532   265      327.0000       45.0000   678816   86.24%
    240   160       90.0638   262      327.0000       45.0000   679146   86.24%
    248   166      109.2872   241      327.0000       45.0000   679489   86.24%
    259   173      133.7021   246      327.0000       45.0000   679845   86.24%
Elapsed time = 1391.72 sec. (2223813.36 ticks, tree = 26.69 MB, solutions = 1)
    272   184      156.5532   256      327.0000       45.0000   680126   86.24%
    285   193      174.1064   253      327.0000       45.0000   680421   86.24%
    299   204      194.3830   198      327.0000       45.0000   680775   86.24%
    312   214      233.4681   184      327.0000       45.0000   681038   86.24%
    330   228      251.0000   147      327.0000       45.0000   681305   86.24%
    349   245      251.0000   116      327.0000       45.0000   681645   86.24%
    365   259      251.0000    93      327.0000       45.0000   682059   86.24%
    385   279      251.0000    34      327.0000       45.0000   682408   86.24%
*   398   276      integral     0      310.0000       45.0000   682610   85.48%
    399   277       45.0000   423      310.0000       45.0000   708693   85.48%
    400   278       45.0000   440      310.0000       45.0000   725428   85.48%
Elapsed time = 1512.60 sec. (2447238.51 ticks, tree = 43.74 MB, solutions = 2)
    401   279       45.0000   424      310.0000       45.0000   749487   85.48%
    402   280       45.0000   412      310.0000       45.0000   770115   85.48%
    403   281       45.0000   456      310.0000       45.0000   808786   85.48%
    404   282       45.0000   440      310.0000       45.0000   818837   85.48%
    405   283       45.0000   495      310.0000       45.0000   835566   85.48%
    406   284       45.0000   391      310.0000       45.0000   837576   85.48%
    407   285       45.0000   310      310.0000       45.0000   844514   85.48%
    408   286       45.0000   322      310.0000       45.0000   849371   85.48%
    409   287       45.0000   317      310.0000       45.0000   851888   85.48%
    410   288       45.0000   309      310.0000       45.0000   873630   85.48%
Elapsed time = 1803.15 sec. (2931683.02 ticks, tree = 45.23 MB, solutions = 2)
    411   289       45.0000   466      310.0000       45.0000   885872   85.48%
    412   290       45.0075   421      310.0000       45.0000   923596   85.48%
    413   291       45.2736   453      310.0000       45.0000   925926   85.48%
    414   292       45.3527   480      310.0000       45.0000   927063   85.48%
    415   293       45.3527   532      310.0000       45.0000   927440   85.48%
    416   294       45.4069   461      310.0000       45.0000   928185   85.48%
    417   295       45.4548   435      310.0000       45.0000   928662   85.48%
    419   297       45.4612   505      310.0000       45.0000   929275   85.48%
    420   298       45.6295   515      310.0000       45.0000   929689   85.48%
    421   299       45.7721   544      310.0000       45.0000   931939   85.48%
Elapsed time = 1907.33 sec. (3102084.37 ticks, tree = 46.92 MB, solutions = 2)
    422   300       45.8928   405      310.0000       45.0000   933836   85.48%
    423   301       45.9198   478      310.0000       45.0000   935522   85.48%
    424   302       45.9274   476      310.0000       45.0000   938817   85.48%
    426   304       45.9808   450      310.0000       45.0000   940733   85.48%
    429   307       46.0155   460      310.0000       45.0000   941983   85.48%
    431   309       46.0285   719      310.0000       45.0000   943295   85.48%
    433   311       46.1133   451      310.0000       45.0000   944508   85.48%
    437   315       46.3170   560      310.0000       45.0000   945471   85.48%
    439   317       46.3716   736      310.0000       45.0000   946439   85.48%
    441   319       46.5388   524      310.0000       45.0000   948222   85.48%
Elapsed time = 1942.70 sec. (3160665.44 ticks, tree = 49.98 MB, solutions = 2)
    444   322       46.5937   547      310.0000       45.0000   949437   85.48%
    445   323       46.7034   489      310.0000       45.0000   951010   85.48%
    447   325       46.7372   646      310.0000       45.0000   952021   85.48%
    450   328       46.7602   522      310.0000       45.0000   953338   85.48%
    452   330       46.8557   497      310.0000       45.0000   954604   85.48%
    453   331       46.8732   612      310.0000       45.0000   955768   85.48%
    454   332       46.9385   564      310.0000       45.0000   957197   85.48%
    456   334       47.0051   501      310.0000       45.0000   959116   85.48%
    458   336       47.0628   512      310.0000       45.0000   960234   85.48%
    461   339       47.1003   616      310.0000       45.0000   961473   85.48%
Elapsed time = 1972.41 sec. (3210092.77 ticks, tree = 53.04 MB, solutions = 2)
    464   342       47.1597   639      310.0000       45.0000   962598   85.48%
    467   345       47.2179   548      310.0000       45.0000   963762   85.48%
    468   346       47.2285   619      310.0000       45.0000   965156   85.48%
    470   348       47.2679   542      310.0000       45.0000   966339   85.48%
    472   350       47.3326   560      310.0000       45.0000   968835   85.48%
    474   352       47.4032   560      310.0000       45.0000   970046   85.48%
    479   357       47.4308   725      310.0000       45.0000   971143   85.48%
    480   358       47.4813   589      310.0000       45.0000   972279   85.48%
    482   360       47.5522   533      310.0000       45.0000   973637   85.48%
    484   362       47.5912   780      310.0000       45.0000   975276   85.48%
Elapsed time = 2004.46 sec. (3263132.65 ticks, tree = 56.57 MB, solutions = 2)
    487   365       47.6145   731      310.0000       45.0000   976547   85.48%
    489   367       47.6439   580      310.0000       45.0000   977622   85.48%
    490   368       47.6685   540      310.0000       45.0000   979009   85.48%
    493   371       47.7017   580      310.0000       45.0000   980018   85.48%
    496   374       47.7350   521      310.0000       45.0000   982098   85.48%
    497   375       47.7418   476      310.0000       45.0000   984368   85.48%
    501   379       47.8009   533      310.0000       45.0000   985696   85.48%
    503   381       47.8142   486      310.0000       45.0000   986799   85.48%
    507   385       47.8598   505      310.0000       45.0000   988111   85.48%
    509   387       45.0000   352      310.0000       45.0000  1000942   85.48%
Elapsed time = 2269.68 sec. (3668363.97 ticks, tree = 60.55 MB, solutions = 2)
    510   388       45.0000   387      310.0000       45.0000  1033791   85.48%
    511   389       45.0000   269      310.0000       45.0000  1214408   85.48%
    512   390       45.0000   361      310.0000       45.0000  1232128   85.48%
    513   390       45.0000   308      310.0000       45.0000  1232468   85.48%
    514   390       45.0000   297      310.0000       45.0000  1233253   85.48%
    515   391       66.0000   228      310.0000       45.0000  1233415   85.48%
    516   392       45.0000   282      310.0000       45.0000  1233655   85.48%
    517   393       45.0000   296      310.0000       45.0000  1233714   85.48%
    518   393       45.0000   296      310.0000       45.0000  1233723   85.48%
    519   394       45.0000   273      310.0000       45.0000  1239007   85.48%
Elapsed time = 3466.59 sec. (5449875.96 ticks, tree = 61.29 MB, solutions = 2)
    521   395       45.0000   279      310.0000       45.0000  1239030   85.48%
    523   397       45.0863   299      310.0000       45.0000  1247783   85.48%
    525   397       45.0000   294      310.0000       45.0000  1266056   85.48%
    526   398       45.0000   303      310.0000       45.0000  1266770   85.48%
    527   399       45.0949   278      310.0000       45.0000  1281284   85.48%
    528   399       45.0000   344      310.0000       45.0000  1281491   85.48%
    529   400       45.0000   336      310.0000       45.0000  1281504   85.48%
    530   400       45.0006   313      310.0000       45.0000  1283052   85.48%

Clique cuts applied:  11
Mixed integer rounding cuts applied:  34
Zero-half cuts applied:  12
Gomory fractional cuts applied:  1

Root node processing (before b&c):
  Real time             =  757.04 sec. (1234915.20 ticks)
Sequential b&c:
  Real time             = 2842.97 sec. (4449936.79 ticks)
                          ------------
Total (root+branch&cut) = 3600.01 sec. (5684851.99 ticks)

Solution pool: 2 solutions saved.

MIP - Time limit exceeded, integer feasible:  Objective =  3.1000000000e+02
Current MIP best bound =  4.5000000000e+01 (gap = 265, 85.48%)
Solution time = 3600.01 sec.  Iterations = 1291372  Nodes = 531 (400)
Deterministic time = 5684852.46 ticks  (1579.12 ticks/sec)

CPLEX> Incumbent solution
Variable Name           Solution Value
y                           310.000000
x60                           1.000000
x5849                         1.000000
x11615                        1.000000
x17384                        1.000000
x23120                        1.000000
x28882                        1.000000
x34688                        1.000000
x40494                        1.000000
x46269                        1.000000
x52012                        1.000000
x57801                        1.000000
x63593                        1.000000
x69360                        1.000000
x75147                        1.000000
x80885                        1.000000
x86663                        1.000000
x92436                        1.000000
x98218                        1.000000
x104005                       1.000000
x109759                       1.000000
x115537                       1.000000
x121360                       1.000000
x127105                       1.000000
x132870                       1.000000
x138694                       1.000000
x144455                       1.000000
x150234                       1.000000
x155965                       1.000000
x161764                       1.000000
x5321                         1.000000
x11249                        1.000000
x16265                        1.000000
x20597                        1.000000
x24245                        1.000000
x33973                        1.000000
x37013                        1.000000
x45069                        1.000000
x50769                        1.000000
x52593                        1.000000
x60801                        1.000000
x65741                        1.000000
x72885                        1.000000
x79497                        1.000000
x82385                        1.000000
x88313                        1.000000
x93861                        1.000000
x101081                       1.000000
x106097                       1.000000
x110809                       1.000000
x118637                       1.000000
x126085                       1.000000
x129505                       1.000000
x134445                       1.000000
x143869                       1.000000
x148125                       1.000000
x154509                       1.000000
x156865                       1.000000
x166897                       1.000000
x54039                        1.000000
x33900                        1.000000
x106709                       1.000000
x29114                        1.000000
x29419                        1.000000
x32764                        1.000000
x52829                        1.000000
x31702                        1.000000
x33755                        1.000000
x52148                        1.000000
x33834                        1.000000
x19170                        1.000000
x29355                        1.000000
x21000                        1.000000
x22901                        1.000000
x118891                       1.000000
x104301                       1.000000
x67822                        1.000000
x18651                        1.000000
x34614                        1.000000
x30283                        1.000000
x29678                        1.000000
x100131                       1.000000
x21548                        1.000000
x117538                       1.000000
x19119                        1.000000
x20564                        1.000000
x116781                       1.000000
x31434                        1.000000
x164435                       1.000000
x22773                        1.000000
x148554                       1.000000
x29311                        1.000000
x32352                        1.000000
x31517                        1.000000
x29922                        1.000000
x32897                        1.000000
x29630                        1.000000
x32975                        1.000000
x32748                        1.000000
x165293                       1.000000
x4555                         1.000000
x19680                        1.000000
x20366                        1.000000
x29031                        1.000000
x34580                        1.000000
u3                            1.000000
u4                           43.000000
u5                            1.000000
u6                           44.000000
u7                           31.000000
u8                           30.000000
u9                            3.000000
u10                          38.000000
u11                          36.000000
u12                           2.000000
u14                          40.000000
u18                           4.000000
u19                          32.000000
u24                           8.000000
u25                           3.000000
u27                           2.000000
u29                          46.000000
u30                           1.000000
u31                           5.000000
u34                           3.000000
u35                          33.000000
u38                          37.000000
u39                           1.000000
u40                           1.000000
u42                           3.000000
u43                           9.000000
u44                          10.000000
u45                           1.000000
u46                           4.000000
u47                          45.000000
u49                           7.000000
u50                           1.000000
u51                          45.000000
u52                           5.000000
u53                          34.000000
u54                          41.000000
u65                          35.000000
u66                          39.000000
u67                          42.000000
u68                          46.000000
u69                          46.000000
u71                           1.000000
u72                           6.000000
u74                           2.000000
u75                           1.000000
u76                           2.000000
All other variables in the range 1-165376 are 0.
CPLEX> 